
Gurobi 13.0.2 (win64) logging started Thu Jul 23 16:16:58 2026

Set parameter LogFile to value "E:\codes\ExactEBRP\results\gf_gurobi_performance_recovery_round29\runs\stage2__moderate_seed4302__c3_replica__300s\external\native_logs\R.0.0.0.1.0.0_lp.gurobi.log"
Gurobi Optimizer version 13.0.2 build v13.0.2rc1 (win64 - Windows 10.0 (19045.2))

CPU model: 12th Gen Intel(R) Core(TM) i7-12700KF, instruction set [SSE2|AVX|AVX2]
Thread count: 12 physical cores, 20 logical processors, using up to 1 threads

Non-default parameters:
TimeLimit  222.6091605
MIPGap  0
MIPGapAbs  0
LogToConsole  0
Threads  1

Optimize a model with 11919 rows, 3378 columns and 67378 nonzeros (Min)
Model fingerprint: 0x33f1081c
Model has 21 linear objective coefficients
Coefficient statistics:
  Matrix range     [3e-03, 2e+04]
  Objective range  [7e-03, 1e+00]
  Bounds range     [3e-03, 1e+02]
  RHS range        [3e-03, 5e+04]

Presolve removed 875 rows and 104 columns
Presolve time: 0.03s
Presolved: 11044 rows, 3275 columns, 64059 nonzeros

Iteration    Objective       Primal Inf.    Dual Inf.      Time
       0    3.0339287e-03   1.233436e+02   0.000000e+00      0s
    1076    3.0339287e-03   0.000000e+00   0.000000e+00      0s

Solved in 1076 iterations and 0.08 seconds (0.25 work units)
Optimal objective  3.033928679e-03

User-callback calls 1221, time in user-callback 0.00 sec
